
n_res = 6;
rcap = [63, 63, 562, 543, 581, 587];
rtype = [1, 1, 2, 2, 2, 2];
n_tasks = 50;
modes =  [{1, 2, 3, 4, 5, 6}, {7, 8, 9, 10, 11, 12}, {13, 14, 15, 16, 17, 18}, {19, 20, 21, 22, 23, 24}, {25, 26, 27, 28, 29, 30}, {31, 32, 33, 34, 35, 36}, {37, 38, 39, 40, 41, 42}, {43, 44, 45, 46, 47, 48}, {49, 50, 51, 52, 53, 54}, {55, 56, 57, 58, 59, 60}, {61, 62, 63, 64, 65, 66}, {67, 68, 69, 70, 71, 72}, {73, 74, 75, 76, 77, 78}, {79, 80, 81, 82, 83, 84}, {85, 86, 87, 88, 89, 90}, {91, 92, 93, 94, 95, 96}, {97, 98, 99, 100, 101, 102}, {103, 104, 105, 106, 107, 108}, {109, 110, 111, 112, 113, 114}, {115, 116, 117, 118, 119, 120}, {121, 122, 123, 124, 125, 126}, {127, 128, 129, 130, 131, 132}, {133, 134, 135, 136, 137, 138}, {139, 140, 141, 142, 143, 144}, {145, 146, 147, 148, 149, 150}, {151, 152, 153, 154, 155, 156}, {157, 158, 159, 160, 161, 162}, {163, 164, 165, 166, 167, 168}, {169, 170, 171, 172, 173, 174}, {175, 176, 177, 178, 179, 180}, {181, 182, 183, 184, 185, 186}, {187, 188, 189, 190, 191, 192}, {193, 194, 195, 196, 197, 198}, {199, 200, 201, 202, 203, 204}, {205, 206, 207, 208, 209, 210}, {211, 212, 213, 214, 215, 216}, {217, 218, 219, 220, 221, 222}, {223, 224, 225, 226, 227, 228}, {229, 230, 231, 232, 233, 234}, {235, 236, 237, 238, 239, 240}, {241, 242, 243, 244, 245, 246}, {247, 248, 249, 250, 251, 252}, {253, 254, 255, 256, 257, 258}, {259, 260, 261, 262, 263, 264}, {265, 266, 267, 268, 269, 270}, {271, 272, 273, 274, 275, 276}, {277, 278, 279, 280, 281, 282}, {283, 284, 285, 286, 287, 288}, {289, 290, 291, 292, 293, 294}, {295, 296, 297, 298, 299, 300}];
succ =  [{50, 48, 47, 44, 31, 27, 25, 24, 16, 14, 11}, {47, 32, 31, 23, 16, 14}, {48, 47, 45, 44, 42, 41, 39, 38, 34, 32, 31, 30, 27, 20}, {47, 44, 39, 38, 31, 30, 29, 27, 20, 16}, {48, 40, 31, 30, 26, 19, 17}, {50, 49, 44, 43, 31, 28, 23, 14}, {48, 47, 43, 41, 38, 35, 34, 30, 28, 27, 22}, {44, 43, 42, 40, 31, 14}, {46, 45, 40, 39, 19, 15}, {47, 46, 42, 41, 40, 39, 38, 37, 36, 34, 33, 32}, {49, 42, 40, 39, 36, 32, 30, 26}, {47, 44, 38, 29, 16}, {45, 44, 43, 41, 39, 38, 34, 32, 31}, {46, 41, 38, 36, 35, 34, 30, 29}, {38, 36, 34, 33, 32, 29}, {45, 43, 42, 40, 35, 34, 33}, {45, 43, 41, 36, 33, 32}, {49, 48, 41, 39, 35, 30}, {44, 42, 38, 37, 35, 34}, {46, 37, 36, 35, 33}, {39, 36, 34, 33}, {39, 36, 31}, {39, 36, 34}, {40, 38, 33}, {38, 36, 34}, {34, 29}, {40, 36}, {37, 33}, {37}, {33}, {33}, {35}, {}, {}, {}, {}, {}, {}, {}, {}, {}, {}, {}, {}, {}, {}, {}, {}, {}, {}];
n_opt = 300;
dur = [3, 5, 13, 14, 15, 18, 7, 8, 9, 10, 11, 14, 2, 10, 11, 13, 14, 18, 1, 3, 4, 8, 19, 20, 5, 6, 7, 8, 19, 20, 4, 6, 12, 13, 18, 19, 8, 9, 10, 16, 17, 18, 1, 2, 8, 9, 10, 19, 2, 3, 4, 14, 18, 19, 2, 3, 8, 12, 15, 20, 3, 6, 10, 11, 12, 15, 5, 6, 7, 12, 17, 20, 5, 7, 9, 14, 18, 19, 1, 5, 10, 11, 13, 17, 3, 5, 12, 16, 18, 19, 4, 5, 6, 13, 14, 20, 8, 9, 12, 13, 15, 17, 1, 6, 11, 13, 14, 19, 1, 2, 4, 10, 12, 20, 1, 2, 4, 12, 14, 17, 1, 6, 7, 11, 13, 14, 4, 7, 9, 14, 19, 20, 7, 8, 14, 15, 17, 20, 3, 7, 9, 10, 13, 20, 2, 6, 8, 10, 15, 19, 1, 2, 3, 4, 12, 14, 7, 15, 16, 17, 18, 20, 5, 7, 8, 12, 13, 17, 1, 3, 8, 11, 17, 20, 2, 3, 4, 5, 18, 19, 5, 6, 7, 9, 15, 20, 10, 12, 13, 15, 17, 18, 1, 5, 10, 13, 17, 18, 5, 12, 13, 14, 15, 16, 1, 6, 8, 13, 16, 19, 5, 6, 7, 8, 9, 10, 5, 8, 13, 14, 15, 17, 1, 14, 15, 16, 18, 19, 3, 4, 6, 8, 15, 18, 1, 9, 12, 14, 16, 17, 2, 3, 5, 10, 12, 17, 10, 13, 16, 17, 18, 19, 5, 6, 11, 12, 16, 17, 3, 4, 5, 14, 19, 20, 1, 4, 8, 11, 12, 18, 3, 4, 7, 12, 13, 14, 7, 8, 9, 10, 13, 17, 2, 3, 11, 14, 16, 19, 3, 10, 11, 13, 14, 19, 3, 4, 5, 6, 7, 8];
rreq = [|16, 14, 12, 10, 8, 7, 16, 15, 15, 14, 14, 14, 9, 9, 9, 8, 8, 7, 20, 17, 14, 10, 9, 6, 9, 9, 9, 9, 9, 9, 15, 13, 10, 9, 8, 6, 18, 17, 17, 15, 15, 14, 10, 8, 8, 6, 6, 4, 18, 14, 12, 10, 6, 6, 14, 10, 8, 5, 3, 2, 20, 16, 16, 13, 13, 11, 20, 19, 19, 19, 19, 19, 5, 5, 5, 5, 5, 5, 19, 18, 18, 18, 18, 18, 16, 15, 15, 15, 15, 15, 18, 17, 17, 17, 17, 17, 19, 19, 19, 18, 18, 17, 10, 8, 7, 4, 4, 2, 20, 20, 20, 20, 20, 20, 14, 14, 14, 14, 14, 14, 15, 13, 12, 9, 9, 7, 19, 18, 17, 17, 17, 16, 15, 12, 12, 10, 9, 8, 13, 12, 8, 6, 4, 4, 19, 17, 14, 14, 11, 8, 13, 13, 12, 11, 10, 8, 15, 15, 14, 12, 9, 8, 15, 15, 15, 15, 15, 15, 8, 8, 7, 7, 6, 5, 13, 12, 10, 7, 5, 4, 2, 1, 1, 1, 1, 1, 12, 11, 11, 10, 9, 9, 5, 5, 5, 4, 3, 3, 17, 13, 11, 10, 8, 7, 18, 15, 13, 9, 7, 5, 18, 18, 18, 17, 17, 17, 19, 18, 18, 17, 17, 17, 16, 16, 16, 15, 14, 14, 11, 11, 8, 7, 3, 2, 6, 4, 4, 4, 2, 2, 5, 4, 3, 3, 2, 2, 15, 14, 12, 12, 11, 10, 8, 7, 6, 6, 5, 5, 18, 13, 11, 9, 5, 2, 15, 13, 10, 9, 6, 5, 7, 6, 5, 5, 4, 4, 17, 17, 16, 16, 16, 15, 5, 4, 3, 3, 2, 1, 11, 10, 10, 9, 9, 9, 9, 9, 8, 8, 7, 6
 |20, 19, 18, 17, 15, 15, 16, 15, 13, 11, 10, 9, 17, 16, 13, 11, 10, 6, 5, 3, 3, 2, 2, 1, 14, 14, 13, 13, 13, 12, 14, 13, 13, 13, 13, 13, 18, 15, 10, 10, 6, 3, 9, 9, 9, 9, 8, 8, 14, 12, 12, 12, 11, 10, 9, 8, 8, 7, 6, 4, 6, 5, 5, 5, 5, 5, 5, 4, 4, 3, 3, 2, 16, 16, 12, 10, 9, 6, 3, 2, 2, 2, 1, 1, 17, 16, 15, 13, 13, 10, 8, 6, 6, 6, 4, 4, 16, 14, 11, 8, 6, 3, 19, 19, 17, 17, 16, 15, 9, 8, 7, 7, 7, 6, 5, 4, 4, 3, 2, 2, 16, 15, 12, 11, 8, 8, 19, 18, 18, 17, 17, 17, 18, 17, 16, 16, 15, 15, 16, 13, 10, 8, 5, 4, 9, 7, 6, 5, 4, 4, 20, 17, 15, 14, 12, 11, 15, 13, 11, 10, 8, 6, 6, 6, 4, 4, 3, 1, 6, 4, 3, 3, 2, 1, 13, 12, 8, 8, 5, 4, 12, 10, 10, 7, 3, 1, 19, 17, 16, 16, 14, 14, 3, 3, 3, 3, 3, 3, 11, 10, 8, 6, 6, 5, 12, 12, 12, 11, 11, 11, 19, 19, 19, 19, 19, 19, 17, 15, 14, 11, 9, 7, 16, 15, 13, 13, 11, 10, 18, 16, 16, 14, 14, 13, 19, 19, 19, 19, 19, 19, 14, 13, 13, 13, 13, 13, 4, 3, 3, 3, 3, 3, 19, 17, 17, 16, 14, 12, 12, 11, 9, 7, 7, 6, 12, 9, 9, 7, 5, 5, 6, 6, 6, 6, 6, 6, 16, 16, 16, 15, 15, 15, 10, 9, 8, 7, 7, 6, 6, 6, 6, 6, 5, 5, 17, 16, 16, 15, 15, 15
 |17, 15, 11, 11, 9, 6, 8, 6, 5, 4, 3, 3, 18, 13, 10, 10, 8, 5, 15, 13, 12, 11, 9, 8, 19, 18, 18, 17, 17, 17, 10, 10, 9, 6, 5, 4, 3, 3, 3, 3, 3, 3, 11, 11, 8, 8, 6, 3, 10, 9, 9, 9, 8, 8, 10, 8, 7, 5, 4, 2, 10, 9, 8, 8, 8, 7, 11, 11, 11, 11, 10, 10, 12, 10, 7, 4, 2, 1, 7, 7, 6, 5, 4, 3, 8, 7, 7, 7, 7, 7, 19, 18, 18, 18, 17, 17, 13, 13, 13, 13, 13, 13, 7, 6, 6, 4, 3, 2, 9, 9, 9, 8, 8, 8, 12, 10, 7, 7, 4, 3, 18, 17, 16, 15, 14, 13, 6, 6, 6, 6, 5, 5, 16, 13, 12, 9, 6, 4, 15, 14, 14, 14, 14, 14, 19, 16, 13, 10, 9, 8, 16, 15, 14, 14, 13, 12, 8, 7, 6, 6, 6, 5, 11, 10, 10, 10, 8, 8, 18, 16, 13, 10, 10, 8, 17, 17, 17, 17, 17, 17, 4, 4, 4, 4, 4, 4, 18, 17, 17, 17, 17, 17, 6, 5, 5, 4, 4, 4, 13, 12, 12, 11, 10, 10, 13, 13, 12, 12, 12, 11, 14, 12, 11, 11, 9, 8, 15, 12, 11, 9, 9, 8, 15, 15, 15, 15, 15, 15, 12, 10, 10, 8, 6, 5, 17, 16, 16, 16, 14, 14, 12, 10, 9, 9, 8, 6, 12, 12, 12, 12, 12, 12, 12, 11, 10, 9, 7, 6, 15, 12, 10, 5, 5, 1, 12, 11, 10, 9, 8, 8, 11, 10, 10, 9, 7, 7, 13, 12, 11, 11, 10, 10, 13, 11, 11, 10, 10, 9, 18, 14, 13, 8, 5, 3, 4, 3, 3, 2, 2, 2
 |9, 9, 9, 8, 7, 7, 17, 15, 14, 12, 10, 9, 10, 8, 8, 6, 6, 4, 19, 18, 14, 12, 11, 9, 6, 6, 6, 6, 5, 5, 14, 10, 10, 8, 4, 4, 12, 10, 10, 8, 4, 3, 11, 9, 8, 8, 6, 6, 13, 13, 13, 13, 13, 13, 15, 12, 11, 10, 9, 7, 10, 9, 8, 7, 6, 6, 9, 9, 8, 6, 5, 4, 16, 12, 11, 8, 8, 5, 12, 11, 11, 10, 10, 9, 8, 8, 7, 7, 6, 6, 14, 13, 13, 13, 11, 11, 14, 14, 12, 10, 10, 9, 19, 16, 14, 10, 6, 5, 8, 7, 5, 4, 3, 2, 11, 10, 9, 6, 3, 3, 16, 16, 15, 13, 11, 10, 12, 11, 11, 11, 10, 10, 7, 7, 7, 7, 7, 7, 11, 10, 10, 9, 9, 9, 14, 11, 9, 7, 4, 3, 8, 6, 5, 5, 3, 3, 16, 12, 9, 6, 6, 4, 12, 11, 11, 11, 10, 10, 5, 4, 4, 3, 3, 3, 20, 16, 16, 13, 13, 10, 11, 10, 9, 8, 7, 7, 13, 12, 10, 10, 8, 8, 16, 15, 15, 13, 12, 12, 16, 15, 14, 12, 11, 11, 13, 11, 11, 10, 9, 7, 5, 3, 3, 3, 2, 1, 10, 9, 9, 8, 8, 8, 10, 10, 9, 6, 6, 4, 15, 13, 13, 12, 10, 10, 11, 11, 11, 10, 10, 10, 8, 8, 7, 5, 5, 4, 14, 12, 12, 12, 10, 10, 14, 13, 9, 8, 6, 5, 10, 9, 7, 5, 4, 3, 13, 13, 10, 7, 6, 4, 16, 13, 10, 10, 6, 5, 8, 8, 8, 8, 8, 8, 18, 15, 12, 10, 6, 4, 18, 15, 9, 7, 6, 3, 8, 7, 7, 7, 7, 7
 |18, 14, 13, 9, 9, 6, 10, 10, 10, 10, 10, 10, 9, 8, 8, 7, 5, 3, 10, 8, 7, 6, 5, 4, 19, 15, 14, 13, 10, 8, 15, 14, 14, 14, 14, 14, 16, 14, 12, 12, 10, 10, 6, 6, 6, 5, 5, 5, 16, 13, 11, 8, 4, 1, 9, 8, 6, 6, 5, 4, 8, 8, 8, 8, 7, 7, 12, 10, 10, 9, 8, 8, 15, 15, 14, 14, 13, 13, 7, 7, 6, 5, 4, 2, 17, 16, 16, 15, 15, 15, 5, 4, 3, 3, 2, 2, 12, 12, 10, 8, 4, 4, 14, 14, 14, 14, 14, 14, 12, 12, 12, 11, 11, 11, 18, 14, 11, 9, 7, 6, 17, 17, 16, 16, 16, 15, 7, 7, 7, 7, 7, 7, 14, 14, 12, 11, 9, 8, 12, 11, 9, 9, 7, 5, 15, 15, 13, 12, 12, 10, 20, 20, 20, 20, 20, 20, 19, 18, 18, 16, 16, 15, 17, 14, 13, 9, 8, 4, 15, 15, 15, 15, 15, 15, 17, 15, 13, 11, 9, 7, 12, 11, 9, 6, 4, 2, 14, 13, 11, 10, 10, 7, 11, 10, 9, 6, 5, 5, 5, 5, 5, 5, 5, 5, 12, 10, 8, 7, 7, 6, 13, 12, 12, 11, 11, 11, 18, 15, 12, 9, 6, 3, 15, 13, 11, 9, 8, 7, 16, 14, 14, 13, 11, 9, 11, 11, 11, 10, 10, 10, 7, 7, 7, 7, 7, 7, 15, 11, 9, 7, 3, 2, 9, 9, 8, 8, 7, 7, 11, 9, 6, 5, 3, 2, 17, 14, 9, 7, 5, 3, 16, 14, 10, 8, 6, 6, 6, 6, 6, 5, 4, 4, 15, 14, 14, 12, 11, 11, 15, 10, 8, 7, 5, 4, 12, 11, 11, 11, 10, 10
 |10, 8, 8, 7, 6, 5, 4, 3, 2, 2, 1, 1, 18, 18, 15, 14, 12, 8, 15, 15, 15, 15, 15, 15, 17, 17, 14, 12, 8, 7, 15, 15, 14, 13, 12, 12, 7, 6, 6, 6, 4, 4, 14, 12, 12, 11, 10, 10, 14, 12, 9, 8, 5, 4, 15, 12, 11, 11, 9, 9, 15, 13, 12, 8, 6, 3, 17, 12, 12, 9, 7, 6, 7, 7, 7, 7, 7, 7, 12, 11, 9, 8, 8, 7, 10, 9, 9, 8, 7, 7, 7, 7, 6, 5, 4, 3, 14, 13, 13, 13, 13, 13, 14, 14, 13, 11, 9, 8, 17, 16, 13, 10, 7, 5, 17, 16, 15, 14, 13, 11, 15, 13, 12, 12, 9, 8, 9, 7, 6, 6, 5, 3, 9, 9, 9, 9, 9, 9, 16, 14, 12, 12, 9, 9, 8, 8, 8, 8, 8, 8, 11, 9, 7, 5, 5, 4, 17, 15, 15, 14, 13, 11, 6, 6, 6, 5, 5, 5, 19, 16, 16, 14, 13, 13, 12, 12, 9, 9, 8, 5, 18, 17, 17, 17, 16, 16, 11, 10, 9, 7, 5, 2, 15, 15, 14, 14, 12, 11, 7, 5, 5, 4, 2, 2, 14, 11, 11, 10, 7, 6, 15, 11, 9, 7, 7, 4, 18, 16, 15, 15, 13, 12, 18, 18, 17, 17, 16, 15, 12, 10, 7, 5, 4, 3, 14, 12, 10, 8, 8, 6, 6, 5, 5, 5, 3, 3, 6, 5, 5, 4, 3, 3, 17, 17, 17, 17, 17, 17, 14, 10, 10, 6, 6, 2, 3, 3, 3, 2, 2, 1, 15, 13, 13, 10, 9, 7, 19, 14, 11, 9, 5, 2, 19, 18, 18, 18, 18, 18, 18, 18, 18, 18, 17, 17, 16, 15, 14, 12, 12, 11|];